NAME : single.207798.tour
COMMENT : Length = 207798
COMMENT : Found by LKH [Keld Helsgaun] Tue Mar 17 20:50:25 2026
TYPE : TOUR
DIMENSION : 77
TOUR_SECTION
1
11
57
22
10
34
56
46
35
72
23
68
75
36
58
73
4
76
70
63
16
29
41
17
51
40
50
28
62
49
39
61
27
24
69
12
7
59
13
26
38
48
15
60
14
47
37
25
5
6
3
74
2
64
42
30
18
52
19
43
65
77
71
54
20
66
44
53
31
8
55
45
21
33
9
32
67
-1
EOF
